Rodando pra 1h
Optimize a model with 160095 rows, 239528 columns and 1435571 nonzeros
Coefficient statistics:
  Matrix range    [1e+00, 1e+06]
  Objective range [2e-01, 2e-01]
  Bounds range    [1e+00, 1e+06]
  RHS range       [1e+00, 4e+02]
Presolve time: 2.04s
Presolved: 160095 rows, 239528 columns, 1435571 nonzeros
Variable types: 159664 continuous, 79864 integer (79864 binary)

Root simplex log...

Iteration    Objective       Primal Inf.    Dual Inf.      Time
       0    0.0000000e+00   1.210779e+03   0.000000e+00      7s
     854    0.0000000e+00   0.000000e+00   0.000000e+00      7s

Root relaxation: objective 0.000000e+00, 854 iterations, 0.31 seconds
Total elapsed time = 91.20s
Total elapsed time = 240.40s

    Nodes    |    Current Node    |     Objective Bounds      |     Work
 Expl Unexpl |  Obj  Depth IntInf | Incumbent    BestBd   Gap | It/Node Time

     0     0    0.00000    0   22          -    0.00000      -     -  444s
     0     0    0.00000    0   21          -    0.00000      -     -  979s
     0     0    0.00000    0   20          -    0.00000      -     -  984s
     0     0    0.00000    0   36          -    0.00000      -     -  990s
     0     0    0.00000    0   24          -    0.00000      -     - 1102s
     0     0    0.00000    0   26          -    0.00000      -     - 1103s
     0     0    0.00000    0   84          -    0.00000      -     - 1301s
     0     0    0.00000    0   87          -    0.00000      -     - 1302s
     0     0    0.00000    0  123          -    0.00000      -     - 1442s
     0     0    0.00000    0   75          -    0.00000      -     - 1823s

Cutting planes:
  MIR: 1
  Flow cover: 40
  Flow path: 4
  Network: 1

Explored 0 nodes (1101077 simplex iterations) in 3600.01 seconds
Thread count was 1 (of 4 available processors)

Time limit reached
Best objective -, best bound 0.000000000000e+00, gap -
Tempo: 3595.92 segundos

Error code = 10004
Var::get
